 Code  1531
 Dimension, Fixed Cost
   100        3000
 Facility, Client, Transportation Cost
     1        2           4
     1       23           0
     1       39           4
     1       42           4
     1       53           4
     1       65           3
     1       74           4
     1       75           3
     1       79           2
     1       94           3
     2        7           1
     2       16           0
     2       27           1
     2       28           3
     2       53           1
     2       65           0
     2       76           4
     2       79           1
     2       86           2
     2       97           4
     3       11           4
     3       26           1
     3       28           3
     3       49           3
     3       66           0
     3       69           0
     3       74           1
     3       79           0
     3       83           0
     3       94           3
     4       21           2
     4       42           4
     4       50           4
     4       57           2
     4       66           0
     4       73           4
     4       82           0
     4       91           4
     4       99           0
     4      100           4
     5        5           0
     5        9           1
     5       14           3
     5       28           1
     5       40           1
     5       41           2
     5       55           1
     5       70           0
     5       79           0
     5       89           4
     6        6           3
     6       16           0
     6       38           3
     6       40           4
     6       47           0
     6       52           1
     6       54           0
     6       62           4
     6       75           2
     6       78           2
     7        1           0
     7        3           2
     7        6           4
     7       24           1
     7       32           0
     7       59           2
     7       61           2
     7       79           1
     7       91           1
     7       93           2
     8        3           1
     8        5           4
     8       13           4
     8       19           3
     8       21           1
     8       24           1
     8       45           3
     8       54           0
     8       58           1
     8       95           0
     9        1           2
     9        3           1
     9        5           3
     9       19           2
     9       25           0
     9       32           4
     9       48           2
     9       54           2
     9       58           3
     9       73           1
    10        1           0
    10       10           4
    10       11           4
    10       14           4
    10       16           3
    10       29           2
    10       46           2
    10       55           1
    10       65           1
    10       90           3
    11        4           4
    11        6           0
    11        9           3
    11       11           2
    11       14           0
    11       27           1
    11       40           1
    11       53           4
    11       87           2
    11       94           2
    12        9           1
    12       51           0
    12       54           2
    12       56           2
    12       63           4
    12       67           2
    12       69           0
    12       70           1
    12       78           1
    12       84           4
    13        5           1
    13        8           1
    13       35           0
    13       42           4
    13       52           1
    13       62           0
    13       66           2
    13       70           1
    13       79           3
    13       82           2
    14        4           0
    14       26           2
    14       30           4
    14       42           1
    14       61           4
    14       76           2
    14       86           3
    14       89           1
    14       91           4
    14       92           0
    15       12           2
    15       14           1
    15       40           2
    15       49           1
    15       59           4
    15       63           2
    15       64           1
    15       74           1
    15       76           0
    15       97           0
    16        2           4
    16        6           3
    16       20           3
    16       33           1
    16       51           4
    16       53           3
    16       56           3
    16       64           2
    16       72           0
    16       94           4
    17        7           0
    17       10           0
    17       11           1
    17       16           1
    17       53           1
    17       61           0
    17       71           4
    17       77           0
    17       83           0
    17       91           1
    18       21           3
    18       32           1
    18       38           2
    18       66           4
    18       74           4
    18       77           3
    18       78           1
    18       79           3
    18       82           3
    18       86           2
    19       11           1
    19       15           2
    19       29           1
    19       44           3
    19       47           1
    19       51           0
    19       71           1
    19       75           3
    19       87           0
    19       97           2
    20       13           2
    20       34           1
    20       38           0
    20       57           1
    20       60           3
    20       61           3
    20       63           4
    20       69           4
    20       76           3
    20       96           3
    21       15           1
    21       17           3
    21       22           2
    21       31           4
    21       33           0
    21       42           4
    21       46           0
    21       66           1
    21       87           2
    21       90           0
    22       10           1
    22       26           2
    22       35           3
    22       43           0
    22       60           3
    22       61           0
    22       69           1
    22       90           4
    22       91           2
    22       95           4
    23       22           3
    23       25           4
    23       28           1
    23       35           2
    23       47           3
    23       58           3
    23       61           2
    23       62           3
    23       81           3
    23      100           0
    24       16           3
    24       19           3
    24       49           2
    24       52           0
    24       54           1
    24       56           2
    24       60           1
    24       61           2
    24       87           4
    24       88           1
    25        5           0
    25       18           2
    25       25           2
    25       31           3
    25       49           1
    25       53           4
    25       55           3
    25       77           3
    25       79           2
    25       88           0
    26       12           0
    26       18           0
    26       23           4
    26       25           1
    26       29           1
    26       33           4
    26       41           0
    26       81           4
    26       96           0
    26       98           4
    27        6           1
    27        9           0
    27       13           4
    27       21           4
    27       22           4
    27       25           1
    27       37           0
    27       46           0
    27       63           1
    27       93           1
    28        6           3
    28        9           0
    28       33           1
    28       42           0
    28       47           1
    28       64           0
    28       70           2
    28       71           4
    28       89           4
    28      100           3
    29        5           0
    29       11           4
    29       13           4
    29       33           0
    29       34           4
    29       50           2
    29       88           0
    29       89           3
    29       92           1
    29       93           4
    30        2           3
    30       11           3
    30       22           1
    30       26           1
    30       41           1
    30       64           0
    30       66           1
    30       76           0
    30       89           2
    30       97           1
    31        5           4
    31       15           4
    31       43           0
    31       44           1
    31       45           0
    31       82           3
    31       83           3
    31       84           1
    31       91           4
    31       95           0
    32       12           2
    32       21           1
    32       31           4
    32       55           1
    32       64           0
    32       68           1
    32       69           4
    32       75           1
    32       80           4
    32       83           2
    33        1           4
    33       10           1
    33       19           3
    33       24           1
    33       53           4
    33       59           0
    33       80           0
    33       94           1
    33       98           2
    33       99           2
    34        2           4
    34       12           2
    34       20           0
    34       22           2
    34       34           3
    34       65           2
    34       72           4
    34       90           3
    34       91           1
    34       96           1
    35        5           1
    35       10           2
    35       12           1
    35       16           0
    35       31           4
    35       33           4
    35       39           4
    35       41           4
    35       60           4
    35       93           1
    36       44           1
    36       46           4
    36       49           3
    36       50           0
    36       70           1
    36       71           3
    36       72           3
    36       93           3
    36       96           2
    36       98           1
    37        7           2
    37       10           3
    37       31           1
    37       40           1
    37       46           0
    37       68           2
    37       75           1
    37       84           4
    37       87           1
    37       96           4
    38        7           3
    38       27           1
    38       28           2
    38       50           0
    38       64           1
    38       67           2
    38       71           0
    38       80           4
    38       93           4
    38       99           3
    39       10           4
    39       12           1
    39       13           2
    39       22           3
    39       32           1
    39       39           3
    39       74           4
    39       76           2
    39       78           1
    39      100           1
    40       20           3
    40       22           3
    40       48           2
    40       58           1
    40       61           3
    40       74           2
    40       77           4
    40       86           1
    40       92           3
    40       98           4
    41       15           4
    41       24           2
    41       32           2
    41       38           0
    41       42           0
    41       47           0
    41       52           2
    41       80           2
    41       94           1
    41       96           1
    42       13           4
    42       15           0
    42       21           0
    42       30           2
    42       34           2
    42       35           3
    42       52           0
    42       54           3
    42       85           0
    42       90           4
    43        9           3
    43       12           2
    43       14           0
    43       16           2
    43       20           2
    43       40           0
    43       74           4
    43       76           1
    43       81           4
    43       91           1
    44        4           1
    44       19           2
    44       37           3
    44       54           1
    44       55           0
    44       67           3
    44       70           1
    44       82           0
    44       83           2
    44       89           4
    45        5           2
    45        9           0
    45       14           0
    45       28           3
    45       40           0
    45       53           1
    45       60           0
    45       73           1
    45       80           3
    45       99           3
    46        5           1
    46       14           3
    46       18           2
    46       30           4
    46       43           1
    46       63           1
    46       79           4
    46       85           3
    46       89           4
    46       93           2
    47        3           0
    47       12           1
    47       19           2
    47       34           3
    47       38           0
    47       58           3
    47       76           0
    47       82           1
    47       89           0
    47      100           3
    48        2           1
    48        3           0
    48        7           2
    48       28           3
    48       39           4
    48       61           3
    48       74           4
    48       83           4
    48       90           0
    48       96           0
    49        4           3
    49       11           4
    49       16           3
    49       23           3
    49       28           0
    49       34           2
    49       42           0
    49       76           0
    49       79           3
    49       93           2
    50       18           4
    50       38           2
    50       41           0
    50       44           3
    50       53           1
    50       58           2
    50       59           3
    50       62           0
    50       65           0
    50       70           4
    51        6           1
    51       13           3
    51       16           1
    51       20           1
    51       39           0
    51       54           2
    51       77           3
    51       84           3
    51       86           4
    51      100           0
    52       10           0
    52       22           0
    52       27           2
    52       40           3
    52       48           0
    52       55           0
    52       70           4
    52       75           4
    52       79           1
    52       96           1
    53       12           4
    53       22           3
    53       24           0
    53       53           1
    53       59           4
    53       61           4
    53       86           4
    53       87           4
    53       89           3
    53       93           2
    54        3           4
    54        5           2
    54       30           2
    54       46           1
    54       54           1
    54       56           1
    54       67           2
    54       71           2
    54       99           3
    54      100           0
    55       18           3
    55       26           4
    55       42           0
    55       48           1
    55       57           1
    55       82           1
    55       86           3
    55       89           1
    55       96           2
    55       99           1
    56       13           0
    56       23           1
    56       30           3
    56       44           1
    56       50           1
    56       56           3
    56       60           2
    56       70           3
    56       73           4
    56       93           3
    57       15           3
    57       24           3
    57       32           3
    57       36           2
    57       47           2
    57       60           1
    57       62           1
    57       63           2
    57       75           2
    57       82           4
    58        5           1
    58       12           3
    58       16           1
    58       27           3
    58       31           1
    58       34           4
    58       47           1
    58       76           2
    58       94           4
    58       96           0
    59        3           1
    59        8           2
    59       15           3
    59       25           1
    59       43           4
    59       63           4
    59       66           3
    59       77           4
    59       83           2
    59       94           4
    60        8           1
    60       20           2
    60       24           0
    60       31           0
    60       33           4
    60       37           1
    60       52           0
    60       58           3
    60       60           4
    60      100           4
    61        9           0
    61       17           4
    61       21           4
    61       35           0
    61       53           3
    61       60           1
    61       76           1
    61       90           1
    61       96           1
    61      100           2
    62        2           1
    62       17           2
    62       35           4
    62       56           1
    62       61           3
    62       68           1
    62       74           1
    62       75           0
    62       91           2
    62       95           4
    63        6           0
    63       18           2
    63       21           0
    63       27           2
    63       28           2
    63       40           0
    63       49           3
    63       64           1
    63       78           2
    63       97           1
    64        2           2
    64        4           1
    64       15           0
    64       21           1
    64       30           1
    64       38           0
    64       42           0
    64       58           3
    64       63           0
    64       86           1
    65       36           4
    65       43           1
    65       48           0
    65       53           2
    65       58           1
    65       61           3
    65       67           2
    65       77           3
    65       96           1
    65      100           4
    66        9           0
    66       22           0
    66       34           1
    66       44           2
    66       51           4
    66       60           2
    66       72           1
    66       79           4
    66       82           3
    66       94           0
    67        3           0
    67        4           3
    67       20           2
    67       38           4
    67       48           1
    67       53           4
    67       59           1
    67       78           3
    67       91           2
    67       98           3
    68        2           1
    68       17           0
    68       18           4
    68       29           1
    68       34           1
    68       43           4
    68       74           4
    68       88           3
    68       93           3
    68       96           0
    69        5           0
    69        6           2
    69       30           3
    69       35           3
    69       58           3
    69       60           3
    69       61           2
    69       77           2
    69       90           4
    69       92           2
    70       15           4
    70       19           1
    70       41           2
    70       51           1
    70       60           3
    70       65           3
    70       70           3
    70       73           1
    70       89           3
    70      100           1
    71        5           2
    71       40           2
    71       41           0
    71       46           1
    71       47           2
    71       67           2
    71       76           0
    71       80           3
    71       86           2
    71       91           3
    72        4           4
    72        8           2
    72       13           4
    72       21           4
    72       44           2
    72       51           4
    72       72           4
    72       85           4
    72       88           2
    72       93           1
    73        6           0
    73       13           3
    73       19           1
    73       23           4
    73       45           2
    73       50           2
    73       54           1
    73       61           0
    73       86           0
    73       89           2
    74       20           1
    74       35           1
    74       43           2
    74       45           2
    74       52           3
    74       61           0
    74       77           1
    74       86           3
    74       88           2
    74       89           3
    75       10           2
    75       14           3
    75       21           0
    75       23           2
    75       38           4
    75       39           2
    75       43           2
    75       60           4
    75       75           0
    75       84           3
    76       23           2
    76       33           4
    76       35           4
    76       44           1
    76       51           2
    76       56           1
    76       70           2
    76       74           1
    76       88           2
    76       89           1
    77        7           0
    77       11           3
    77       22           0
    77       34           1
    77       38           0
    77       56           4
    77       57           0
    77       67           4
    77       75           0
    77       93           3
    78        7           3
    78       13           1
    78       31           2
    78       38           0
    78       46           1
    78       57           4
    78       62           4
    78       89           2
    78       95           2
    78       98           4
    79        6           3
    79       10           2
    79       18           2
    79       38           3
    79       49           1
    79       55           3
    79       82           0
    79       87           3
    79       89           2
    79       96           3
    80        4           3
    80       57           2
    80       60           1
    80       63           2
    80       66           3
    80       69           3
    80       74           1
    80       76           0
    80       77           2
    80       78           0
    81       16           3
    81       30           2
    81       32           2
    81       36           2
    81       39           2
    81       40           3
    81       50           2
    81       53           4
    81       71           0
    81       93           1
    82       12           1
    82       13           3
    82       14           1
    82       21           1
    82       22           2
    82       32           3
    82       47           3
    82       79           4
    82       94           1
    82       95           0
    83       20           2
    83       23           3
    83       42           4
    83       51           2
    83       59           2
    83       66           1
    83       69           3
    83       71           2
    83       72           0
    83       77           3
    84       13           0
    84       21           0
    84       40           4
    84       45           3
    84       67           1
    84       75           0
    84       77           0
    84       93           0
    84       96           3
    84       99           1
    85        2           4
    85       13           2
    85       14           4
    85       32           2
    85       39           3
    85       50           1
    85       70           1
    85       78           3
    85       81           1
    85       92           1
    86       29           3
    86       34           2
    86       39           4
    86       42           1
    86       46           4
    86       48           3
    86       55           4
    86       83           3
    86       87           3
    86       92           0
    87        3           4
    87       43           4
    87       45           2
    87       48           4
    87       63           4
    87       72           3
    87       73           0
    87       92           3
    87       94           0
    87       98           1
    88        9           2
    88       24           2
    88       28           1
    88       34           1
    88       39           4
    88       66           1
    88       68           1
    88       71           2
    88       80           2
    88      100           2
    89       10           4
    89       26           3
    89       31           4
    89       33           4
    89       35           2
    89       51           1
    89       64           2
    89       65           3
    89       77           0
    89       83           4
    90        3           0
    90        8           4
    90       21           1
    90       23           2
    90       29           3
    90       46           1
    90       49           3
    90       56           3
    90       59           0
    90       87           4
    91        2           0
    91       18           3
    91       23           1
    91       47           0
    91       57           2
    91       64           4
    91       94           0
    91       96           2
    91       98           3
    91       99           1
    92        6           0
    92       12           4
    92       16           3
    92       32           3
    92       36           3
    92       39           3
    92       45           1
    92       49           4
    92       81           3
    92       95           3
    93       16           0
    93       21           0
    93       28           0
    93       57           4
    93       68           0
    93       74           2
    93       75           4
    93       93           3
    93       96           1
    93       97           4
    94        6           4
    94        8           3
    94       11           1
    94       22           1
    94       48           1
    94       52           0
    94       56           0
    94       94           1
    94       97           2
    94      100           0
    95       17           0
    95       22           4
    95       43           0
    95       45           3
    95       56           0
    95       63           0
    95       68           0
    95       86           2
    95       89           4
    95       96           4
    96        1           0
    96       10           2
    96       20           4
    96       38           3
    96       50           2
    96       66           2
    96       69           2
    96       82           2
    96       84           2
    96       94           3
    97       16           4
    97       23           4
    97       25           0
    97       34           3
    97       35           1
    97       42           0
    97       45           3
    97       52           0
    97       65           1
    97       66           4
    98       14           0
    98       22           4
    98       24           0
    98       28           0
    98       32           2
    98       45           1
    98       54           0
    98       76           2
    98       86           0
    98       88           1
    99       15           3
    99       23           1
    99       31           3
    99       45           4
    99       46           3
    99       51           1
    99       58           1
    99       60           2
    99       79           0
    99       87           1
   100        4           3
   100       21           2
   100       32           4
   100       45           2
   100       50           3
   100       55           0
   100       56           2
   100       77           3
   100       97           3
   100       99           2
